int NumberPatients = 104
int NumberOfRooms = 6
int NumberSurgeons = 25
int NumberOfDays = 6
Duration = [92,32,32,60,130,50,132,103,119,58,59,39,114,41,103,119,114,74,32,47,30,210,98,29,75,103,85,68,93,67,32,103,157,47,132,32,159,60,87,119,97,66,47,50,131,217,131,165,66,72,66,198,66,105,87,41,35,210,103,166,105,256,35,47,119,105,78,101,85,95,47,166,166,32,103,103,120,101,119,103,66,105,72,98,140,31,32,32,120,50,53,67,98,103,53,50,125,93,32,32,31,60,66,112];
Priority = [0,0,0,1,0,0,0,0,0,0,0,0,0,0,0,0,0,0,0,0,0,0,0,1,0,0,0,0,0,0,0,0,0,0,0,0,0,0,0,0,0,0,0,0,0,0,0,0,0,0,0,1,0,0,0,0,0,0,0,0,0,0,0,0,0,0,0,0,0,0,0,0,0,0,0,0,0,0,0,0,0,0,0,0,0,0,0,0,0,0,0,0,0,0,0,0,0,0,0,0,0,0,0,1];
Waiting = [63,37,99,66,36,44,63,30,52,548,66,141,178,70,120,79,70,52,56,63,121,70,84,114,23,220,120,289,39,211,49,148,184,85,116,205,172,186,38,281,120,35,84,106,185,45,24,31,396,267,102,79,23,60,23,39,366,172,30,84,144,106,123,44,221,56,107,95,417,30,164,198,366,99,144,134,134,135,141,205,59,193,507,417,165,161,121,30,171,312,548,191,43,24,50,95,70,499,35,190,199,37,242,184];
Surgeon = [3,1,3,5,2,9,4,5,10,4,3,12,3,8,6,5,6,1,1,6,6,3,8,1,8,6,10,3,9,10,4,5,5,5,2,8,6,4,4,7,3,3,5,5,1,1,10,2,2,6,1,1,2,4,1,10,3,3,1,7,6,5,6,9,10,3,5,1,4,1,12,5,3,4,9,13,6,8,5,2,3,1,1,6,3,3,10,6,3,2,1,1,1,1,6,1,3,5,1,6,8,5,4,2];
BlockAvailability = [[[0,0],[1,0],[0,0],[0,0],[0,0],[0,0]],[[0,1],[0,1],[0,0],[0,0],[0,0],[0,0]],[[0,0],[0,0],[0,1],[0,0],[0,1],[0,0]],[[0,0],[0,0],[0,1],[1,0],[0,1],[0,0]],[[0,1],[0,1],[0,0],[0,0],[0,0],[0,1]],[[0,0],[0,0],[0,1],[1,0],[1,1],[0,0]]];
SurgeonAvailability = [[[1,1],[1,1],[1,1],[1,1],[1,1],[1,0]],[[1,1],[0,1],[1,1],[1,1],[1,1],[1,1]],[[0,1],[0,1],[1,0],[0,1],[1,1],[1,1]],[[1,0],[1,1],[1,0],[1,0],[0,1],[1,1]],[[1,1],[1,0],[1,1],[1,1],[0,1],[1,0]],[[0,0],[1,1],[1,1],[1,1],[1,1],[1,1]],[[1,1],[0,1],[1,1],[1,0],[1,1],[0,1]],[[0,1],[1,1],[1,1],[0,0],[0,1],[1,1]],[[1,1],[1,1],[0,1],[0,1],[1,0],[1,1]],[[0,1],[1,1],[1,1],[1,1],[1,0],[1,1]],[[1,1],[0,0],[1,1],[0,1],[1,0],[1,1]],[[0,1],[1,1],[0,1],[1,1],[1,1],[0,1]],[[1,0],[1,1],[1,1],[1,1],[0,1],[1,1]],[[1,1],[0,1],[1,1],[1,1],[0,0],[1,1]],[[1,1],[0,1],[0,1],[0,0],[0,1],[1,1]],[[1,0],[1,1],[1,0],[0,1],[1,1],[1,1]],[[0,1],[1,1],[0,1],[1,1],[1,1],[1,1]],[[1,1],[1,1],[1,1],[1,1],[1,0],[1,1]],[[1,1],[1,1],[1,1],[1,0],[1,1],[0,0]],[[0,1],[0,1],[1,0],[1,1],[1,1],[0,1]],[[0,0],[1,0],[1,0],[1,1],[1,1],[1,1]],[[1,1],[1,1],[1,1],[1,1],[1,1],[1,1]],[[1,1],[1,1],[1,1],[0,0],[1,1],[1,1]],[[1,1],[1,1],[1,1],[1,0],[1,1],[0,1]],[[1,0],[1,1],[0,1],[1,1],[1,1],[1,0]]];
